param set_len = 24;
param target_sum = 4888151726;
param values := [1] 917020652 [2] 546546398 [3] 879828025 [4] 638327108 [5] 545557073 [6] 463368190 [7] 907550285 [8] 201254428 [9] 679365937 [10] 800473335 [11] 17747574 [12] 345119523 [13] 185060847 [14] 775621506 [15] 377336557 [16] 300254644 [17] 517296592 [18] 97798753 [19] 13117364 [20] 659388291 [21] 921203266 [22] 934323106 [23] 68889934 [24] 1019436654 ;
